p cnf 461 885
a 370 356 373 363 410 388 404 394 401 398 58 62 77 67 81 54 49 92 34 96 414 326 336 265 273 283 261 340 291 277 269 21 25 45 16 41 30 12 1 6 379 360 306 322 310 316 330 345 384 352 223 253 219 205 215 211 201 185 195 191 50 7 26 2 3 17 63 8 227 238 248 231 302 257 234 241 298 287 123 104 127 137 100 141 85 71 108 112 152 177 167 156 117 131 145 181 160 171 0
d 249 238 231 0
d 311 3 63 0
d 341 7 50 0
d 406 401 398 0
d 380 370 360 0
e 4 5 9 10 11 13 14 15 18 19 20 22 23 24 27 28 29 31 32 33 35 36 37 38 39 40 42 43 44 46 47 48 51 52 53 55 56 57 59 60 61 64 65 66 68 69 70 72 73 74 75 76 78 79 80 82 83 84 86 87 88 89 90 91 93 94 95 97 98 99 101 102 103 105 106 107 109 110 111 113 114 115 116 118 119 120 121 122 124 125 126 128 129 130 132 133 134 135 136 138 139 140 142 143 144 146 147 148 149 150 151 153 154 155 157 158 159 161 162 163 164 165 166 168 169 170 172 173 174 175 176 178 179 180 182 183 184 186 187 188 189 190 192 193 194 196 197 198 199 200 202 203 204 206 207 208 209 210 212 213 214 216 217 218 220 221 222 224 225 226 228 229 230 232 233 235 236 237 239 240 242 243 244 245 246 247 250 251 252 254 255 256 258 259 260 262 263 264 266 267 268 270 271 272 274 275 276 278 279 280 281 282 284 285 286 288 289 290 292 293 294 295 296 297 299 300 301 303 304 305 307 308 309 312 313 314 315 317 318 319 320 321 323 324 325 327 328 329 331 332 333 334 335 337 338 339 342 343 344 346 347 348 349 350 351 353 354 355 357 358 359 361 362 364 365 366 367 368 369 371 372 374 375 376 377 378 381 382 383 385 386 387 389 390 391 392 393 395 396 397 399 400 402 403 405 407 408 409 411 412 413 415 416 417 418 419 420 421 422 423 424 425 426 427 428 429 430 431 432 433 434 435 436 437 438 439 440 441 442 443 444 445 446 447 448 449 450 451 452 453 454 455 456 457 458 459 460 461 0
461 0
-461 419 460 0
-419 413 -418 0
-413 409 -412 0
-409 403 -408 0
-403 400 -402 0
-400 397 -399 0
-397 393 -396 0
-393 387 -392 0
-387 383 -386 0
-383 378 -382 0
-378 372 -377 0
-372 369 -371 0
-369 362 -368 0
-362 359 -361 0
-359 355 -358 0
-355 351 -354 0
-351 344 -350 0
-344 339 -343 0
-339 335 -338 0
-335 329 -334 0
-329 325 -328 0
-325 321 -324 0
-321 315 -320 0
-315 309 -314 0
-309 305 -308 0
-305 301 -304 0
-301 297 -300 0
-297 290 -296 0
-290 286 -289 0
-286 282 -285 0
-282 276 -281 0
-276 272 -275 0
-272 268 -271 0
-268 264 -267 0
-264 260 -263 0
-260 256 -259 0
-256 252 -255 0
-252 247 -251 0
-247 240 -246 0
-240 237 -239 0
-237 233 -236 0
-233 230 -232 0
-230 226 -229 0
-226 222 -225 0
-222 218 -221 0
-218 214 -217 0
-214 210 -213 0
-210 204 -209 0
-204 200 -203 0
-200 194 -199 0
-194 190 -193 0
-190 184 -189 0
-184 180 -183 0
-180 176 -179 0
-176 170 -175 0
-170 166 -169 0
-166 159 -165 0
-159 155 -158 0
-155 151 -154 0
-151 144 -150 0
-144 140 -143 0
-140 136 -139 0
-136 130 -135 0
-130 126 -129 0
-126 122 -125 0
-122 116 -121 0
-116 111 -115 0
-111 107 -110 0
-107 103 -106 0
-103 99 -102 0
-99 95 -98 0
-95 91 -94 0
-91 84 -90 0
-84 80 -83 0
-80 76 -79 0
-76 70 -75 0
-70 66 -69 0
-66 61 -65 0
-61 57 -60 0
-57 53 -56 0
-53 48 -52 0
-48 44 -47 0
-44 40 -43 0
-40 33 -39 0
-33 29 -32 0
-29 24 -28 0
-24 20 -23 0
-20 15 -19 0
-15 11 -14 0
-11 -5 -10 0
1 4 5 0
-1 -4 5 0
-2 -3 4 0
-4 2 0
-4 3 0
6 9 10 0
-6 -9 10 0
-7 -8 9 0
-9 7 0
-9 8 0
12 -13 14 0
-12 13 14 0
-13 -1 6 0
-13 1 -6 0
1 6 13 0
-1 -6 13 0
16 18 19 0
-16 -18 19 0
-2 -17 18 0
-18 2 0
-18 17 0
21 22 23 0
-21 -22 23 0
-7 -3 22 0
-22 7 0
-22 3 0
25 27 28 0
-25 -27 28 0
-26 -8 27 0
-27 26 0
-27 8 0
30 -31 32 0
-30 31 32 0
-31 -21 25 0
-31 21 -25 0
21 25 31 0
-21 -25 31 0
34 38 39 0
-34 -38 39 0
-36 37 38 0
36 -37 38 0
-36 -37 38 0
-12 -35 36 0
-2 2 35 0
-1 -6 37 0
-38 36 37 0
-36 12 0
-36 35 0
-35 2 0
-35 -2 0
-37 1 0
-37 6 0
41 -42 43 0
-41 42 43 0
-42 -30 34 0
-42 30 -34 0
30 34 42 0
-30 -34 42 0
45 -46 47 0
-45 46 47 0
-46 -16 41 0
-46 16 -41 0
16 41 46 0
-16 -41 46 0
49 51 52 0
-49 -51 52 0
-2 -50 51 0
-51 2 0
-51 50 0
54 55 56 0
-54 -55 56 0
-7 -17 55 0
-55 7 0
-55 17 0
58 59 60 0
-58 -59 60 0
-26 -3 59 0
-59 26 0
-59 3 0
62 64 65 0
-62 -64 65 0
-63 -8 64 0
-64 63 0
-64 8 0
67 -68 69 0
-67 68 69 0
-68 -58 62 0
-68 58 -62 0
58 62 68 0
-58 -62 68 0
71 74 75 0
-71 -74 75 0
-72 73 74 0
72 -73 74 0
-72 -73 74 0
-30 -34 72 0
-21 -25 73 0
-74 72 73 0
-72 30 0
-72 34 0
-73 21 0
-73 25 0
77 -78 79 0
-77 78 79 0
-78 -67 71 0
-78 67 -71 0
67 71 78 0
-67 -71 78 0
81 -82 83 0
-81 82 83 0
-82 -54 77 0
-82 54 -77 0
54 77 82 0
-54 -77 82 0
85 89 90 0
-85 -89 90 0
-87 88 89 0
87 -88 89 0
-87 -88 89 0
-45 -86 87 0
-2 2 86 0
-16 -41 88 0
-89 87 88 0
-87 45 0
-87 86 0
-86 2 0
-86 -2 0
-88 16 0
-88 41 0
92 -93 94 0
-92 93 94 0
-93 -81 85 0
-93 81 -85 0
81 85 93 0
-81 -85 93 0
96 -97 98 0
-96 97 98 0
-97 -49 92 0
-97 49 -92 0
49 92 97 0
-49 -92 97 0
100 101 102 0
-100 -101 102 0
-7 -50 101 0
-101 7 0
-101 50 0
104 105 106 0
-104 -105 106 0
-26 -17 105 0
-105 26 0
-105 17 0
108 109 110 0
-108 -109 110 0
-63 -3 109 0
-109 63 0
-109 3 0
112 -114 115 0
-112 114 115 0
-114 -108 113 0
-114 108 -113 0
-113 2 0
-113 -2 0
-2 2 113 0
108 113 114 0
-108 -113 114 0
-2 2 113 0
-113 2 0
-113 -2 0
117 120 121 0
-117 -120 121 0
-118 119 120 0
118 -119 120 0
-118 -119 120 0
-67 -71 118 0
-58 -62 119 0
-120 118 119 0
-118 67 0
-118 71 0
-119 58 0
-119 62 0
123 -124 125 0
-123 124 125 0
-124 -112 117 0
-124 112 -117 0
112 117 124 0
-112 -117 124 0
127 -128 129 0
-127 128 129 0
-128 -104 123 0
-128 104 -123 0
104 123 128 0
-104 -123 128 0
131 134 135 0
-131 -134 135 0
-132 133 134 0
132 -133 134 0
-132 -133 134 0
-81 -85 132 0
-54 -77 133 0
-134 132 133 0
-132 81 0
-132 85 0
-133 54 0
-133 77 0
137 -138 139 0
-137 138 139 0
-138 -127 131 0
-138 127 -131 0
127 131 138 0
-127 -131 138 0
141 -142 143 0
-141 142 143 0
-142 -100 137 0
-142 100 -137 0
100 137 142 0
-100 -137 142 0
145 149 150 0
-145 -149 150 0
-147 148 149 0
147 -148 149 0
-147 -148 149 0
-96 -146 147 0
-2 2 146 0
-49 -92 148 0
-149 147 148 0
-147 96 0
-147 146 0
-146 2 0
-146 -2 0
-148 49 0
-148 92 0
152 153 154 0
-152 -153 154 0
-26 -50 153 0
-153 26 0
-153 50 0
156 157 158 0
-156 -157 158 0
-63 -17 157 0
-157 63 0
-157 17 0
160 164 165 0
-160 -164 165 0
-161 163 164 0
161 -163 164 0
-161 -163 164 0
-112 -117 161 0
-108 -162 163 0
-2 2 162 0
-164 161 163 0
-161 112 0
-161 117 0
-163 108 0
-163 162 0
-162 2 0
-162 -2 0
167 -168 169 0
-167 168 169 0
-168 -156 160 0
-168 156 -160 0
156 160 168 0
-156 -160 168 0
171 174 175 0
-171 -174 175 0
-172 173 174 0
172 -173 174 0
-172 -173 174 0
-127 -131 172 0
-104 -123 173 0
-174 172 173 0
-172 127 0
-172 131 0
-173 104 0
-173 123 0
177 -178 179 0
-177 178 179 0
-178 -167 171 0
-178 167 -171 0
167 171 178 0
-167 -171 178 0
181 -182 183 0
-181 182 183 0
-182 -152 177 0
-182 152 -177 0
152 177 182 0
-152 -177 182 0
185 188 189 0
-185 -188 189 0
-186 187 188 0
186 -187 188 0
-186 -187 188 0
-141 -145 186 0
-100 -137 187 0
-188 186 187 0
-186 141 0
-186 145 0
-187 100 0
-187 137 0
191 192 193 0
-191 -192 193 0
-63 -50 192 0
-192 63 0
-192 50 0
195 198 199 0
-195 -198 199 0
-196 197 198 0
196 -197 198 0
-196 -197 198 0
-167 -171 196 0
-156 -160 197 0
-198 196 197 0
-196 167 0
-196 171 0
-197 156 0
-197 160 0
201 -202 203 0
-201 202 203 0
-202 -191 195 0
-202 191 -195 0
191 195 202 0
-191 -195 202 0
205 208 209 0
-205 -208 209 0
-206 207 208 0
206 -207 208 0
-206 -207 208 0
-181 -185 206 0
-152 -177 207 0
-208 206 207 0
-206 181 0
-206 185 0
-207 152 0
-207 177 0
211 212 213 0
-211 -212 213 0
-2 -3 212 0
-212 2 0
-212 3 0
215 216 217 0
-215 -216 217 0
-7 -8 216 0
-216 7 0
-216 8 0
219 -220 221 0
-219 220 221 0
-220 -211 215 0
-220 211 -215 0
211 215 220 0
-211 -215 220 0
223 224 225 0
-223 -224 225 0
-2 -17 224 0
-224 2 0
-224 17 0
227 228 229 0
-227 -228 229 0
-7 -3 228 0
-228 7 0
-228 3 0
231 227 232 0
-231 -227 232 0
234 235 236 0
-234 -235 236 0
-26 -8 235 0
-235 26 0
-235 8 0
238 234 239 0
-238 -234 239 0
241 245 246 0
-241 -245 246 0
-243 244 245 0
243 -244 245 0
-243 -244 245 0
-219 -242 243 0
-2 2 242 0
-211 -215 244 0
-245 243 244 0
-243 219 0
-243 242 0
-242 2 0
-242 -2 0
-244 211 0
-244 215 0
248 -250 251 0
-248 250 251 0
-250 -249 241 0
-250 249 -241 0
249 241 250 0
-249 -241 250 0
253 -254 255 0
-253 254 255 0
-254 -223 248 0
-254 223 -248 0
223 248 254 0
-223 -248 254 0
257 258 259 0
-257 -258 259 0
-2 -50 258 0
-258 2 0
-258 50 0
261 262 263 0
-261 -262 263 0
-7 -17 262 0
-262 7 0
-262 17 0
265 266 267 0
-265 -266 267 0
-26 -3 266 0
-266 26 0
-266 3 0
269 270 271 0
-269 -270 271 0
-63 -8 270 0
-270 63 0
-270 8 0
273 -274 275 0
-273 274 275 0
-274 -265 269 0
-274 265 -269 0
265 269 274 0
-265 -269 274 0
277 280 281 0
-277 -280 281 0
-278 279 280 0
278 -279 280 0
-278 -279 280 0
-249 -241 278 0
-227 -234 279 0
-280 278 279 0
-278 249 0
-278 241 0
-279 227 0
-279 234 0
283 -284 285 0
-283 284 285 0
-284 -273 277 0
-284 273 -277 0
273 277 284 0
-273 -277 284 0
287 -288 289 0
-287 288 289 0
-288 -261 283 0
-288 261 -283 0
261 283 288 0
-261 -283 288 0
291 295 296 0
-291 -295 296 0
-293 294 295 0
293 -294 295 0
-293 -294 295 0
-253 -292 293 0
-2 2 292 0
-223 -248 294 0
-295 293 294 0
-293 253 0
-293 292 0
-292 2 0
-292 -2 0
-294 223 0
-294 248 0
298 -299 300 0
-298 299 300 0
-299 -287 291 0
-299 287 -291 0
287 291 299 0
-287 -291 299 0
302 -303 304 0
-302 303 304 0
-303 -257 298 0
-303 257 -298 0
257 298 303 0
-257 -298 303 0
306 307 308 0
-306 -307 308 0
-26 -17 307 0
-307 26 0
-307 17 0
310 -313 314 0
-310 313 314 0
-313 -311 312 0
-313 311 -312 0
-312 2 0
-312 -2 0
-2 2 312 0
311 312 313 0
-311 -312 313 0
-2 2 312 0
-312 2 0
-312 -2 0
316 319 320 0
-316 -319 320 0
-317 318 319 0
317 -318 319 0
-317 -318 319 0
-273 -277 317 0
-265 -269 318 0
-319 317 318 0
-317 273 0
-317 277 0
-318 265 0
-318 269 0
322 -323 324 0
-322 323 324 0
-323 -310 316 0
-323 310 -316 0
310 316 323 0
-310 -316 323 0
326 -327 328 0
-326 327 328 0
-327 -306 322 0
-327 306 -322 0
306 322 327 0
-306 -322 327 0
330 333 334 0
-330 -333 334 0
-331 332 333 0
331 -332 333 0
-331 -332 333 0
-287 -291 331 0
-261 -283 332 0
-333 331 332 0
-331 287 0
-331 291 0
-332 261 0
-332 283 0
336 -337 338 0
-336 337 338 0
-337 -326 330 0
-337 326 -330 0
326 330 337 0
-326 -330 337 0
340 -342 343 0
-340 342 343 0
-342 -341 336 0
-342 341 -336 0
341 336 342 0
-341 -336 342 0
345 349 350 0
-345 -349 350 0
-347 348 349 0
347 -348 349 0
-347 -348 349 0
-302 -346 347 0
-2 2 346 0
-257 -298 348 0
-349 347 348 0
-347 302 0
-347 346 0
-346 2 0
-346 -2 0
-348 257 0
-348 298 0
352 353 354 0
-352 -353 354 0
-26 -50 353 0
-353 26 0
-353 50 0
356 357 358 0
-356 -357 358 0
-63 -17 357 0
-357 63 0
-357 17 0
360 356 361 0
-360 -356 361 0
363 367 368 0
-363 -367 368 0
-364 366 367 0
364 -366 367 0
-364 -366 367 0
-310 -316 364 0
-311 -365 366 0
-2 2 365 0
-367 364 366 0
-364 310 0
-364 316 0
-366 311 0
-366 365 0
-365 2 0
-365 -2 0
370 363 371 0
-370 -363 371 0
373 376 377 0
-373 -376 377 0
-374 375 376 0
374 -375 376 0
-374 -375 376 0
-326 330 374 0
326 -330 374 0
-326 -330 374 0
-306 -322 375 0
-376 374 375 0
-374 326 330 0
-375 306 0
-375 322 0
379 -381 382 0
-379 381 382 0
-381 -380 373 0
-381 380 -373 0
380 373 381 0
-380 -373 381 0
384 -385 386 0
-384 385 386 0
-385 -352 379 0
-385 352 -379 0
352 379 385 0
-352 -379 385 0
388 391 392 0
-388 -391 392 0
-389 390 391 0
389 -390 391 0
-389 -390 391 0
-340 -345 389 0
-341 -336 390 0
-391 389 390 0
-389 340 0
-389 345 0
-390 341 0
-390 336 0
394 395 396 0
-394 -395 396 0
-63 -50 395 0
-395 63 0
-395 50 0
398 356 399 0
-398 -356 399 0
401 363 402 0
-401 -363 402 0
404 407 408 0
-404 -407 408 0
-405 406 407 0
405 -406 407 0
-405 -406 407 0
-380 -373 405 0
-407 405 406 0
-405 380 0
-405 373 0
410 -411 412 0
-410 411 412 0
-411 -394 404 0
-411 394 -404 0
394 404 411 0
-394 -404 411 0
414 417 418 0
-414 -417 418 0
-415 416 417 0
415 -416 417 0
-415 -416 417 0
-384 -388 415 0
-352 -379 416 0
-417 415 416 0
-415 384 0
-415 388 0
-416 352 0
-416 379 0
-460 452 0
-460 459 0
-452 448 0
-452 451 0
-448 444 0
-448 447 0
-444 440 0
-444 443 0
-440 434 0
-440 439 0
-434 428 0
-434 433 0
-428 422 0
-428 427 0
-422 -420 421 0
-422 420 -421 0
-420 2 0
-420 8 0
-421 2 0
-421 8 0
-2 -8 420 0
-2 -8 421 0
-427 424 -426 0
-427 -424 426 0
219 423 424 0
-219 -423 424 0
-2 2 423 0
-423 2 0
-423 -2 0
12 425 426 0
-12 -425 426 0
-2 2 425 0
-425 2 0
-425 -2 0
-424 -219 423 0
-424 219 -423 0
-423 2 0
-423 -2 0
-2 2 423 0
-426 -12 425 0
-426 12 -425 0
-425 2 0
-425 -2 0
-2 2 425 0
-433 430 -432 0
-433 -430 432 0
253 429 430 0
-253 -429 430 0
-2 2 429 0
-429 2 0
-429 -2 0
45 431 432 0
-45 -431 432 0
-2 2 431 0
-431 2 0
-431 -2 0
-430 -253 429 0
-430 253 -429 0
-429 2 0
-429 -2 0
-2 2 429 0
-432 -45 431 0
-432 45 -431 0
-431 2 0
-431 -2 0
-2 2 431 0
-439 436 -438 0
-439 -436 438 0
302 435 436 0
-302 -435 436 0
-2 2 435 0
-435 2 0
-435 -2 0
96 437 438 0
-96 -437 438 0
-2 2 437 0
-437 2 0
-437 -2 0
-436 -302 435 0
-436 302 -435 0
-435 2 0
-435 -2 0
-2 2 435 0
-438 -96 437 0
-438 96 -437 0
-437 2 0
-437 -2 0
-2 2 437 0
-443 441 -442 0
-443 -441 442 0
340 345 441 0
-340 -345 441 0
141 145 442 0
-141 -145 442 0
-441 -340 345 0
-441 340 -345 0
-442 -141 145 0
-442 141 -145 0
-447 445 -446 0
-447 -445 446 0
384 388 445 0
-384 -388 445 0
181 185 446 0
-181 -185 446 0
-445 -384 388 0
-445 384 -388 0
-446 -181 185 0
-446 181 -185 0
-451 449 -450 0
-451 -449 450 0
410 414 449 0
-410 -414 449 0
201 205 450 0
-201 -205 450 0
-449 -410 414 0
-449 410 -414 0
-450 -201 205 0
-450 201 -205 0
-459 -455 458 0
-459 455 -458 0
-455 453 454 0
-453 410 0
-453 414 0
-454 394 0
-454 404 0
-458 456 457 0
-456 201 0
-456 205 0
-457 191 0
-457 195 0
-453 454 455 0
453 -454 455 0
-453 -454 455 0
-410 -414 453 0
-394 -404 454 0
-456 457 458 0
456 -457 458 0
-456 -457 458 0
-201 -205 456 0
-191 -195 457 0

